c FILE: i160-133

c SOURCE: From steinlib

c DESCRIPTION: Steinlib instance with 160 nodes and 320 edges.

p edge 160 320
e 1 14
e 1 30
e 1 57
e 1 65
e 1 107
e 1 122
e 1 131
e 1 137
e 2 66
e 2 90
e 3 24
e 3 36
e 3 39
e 3 55
e 3 65
e 3 89
e 4 8
e 4 19
e 4 52
e 4 63
e 4 85
e 4 108
e 4 109
e 4 121
e 4 151
e 4 159
e 5 15
e 5 63
e 6 15
e 6 19
e 6 22
e 6 31
e 6 32
e 6 38
e 6 82
e 7 26
e 7 51
e 8 68
e 8 148
e 9 141
e 10 58
e 10 105
e 10 128
e 10 134
e 11 17
e 11 32
e 11 39
e 11 83
e 11 114
e 11 117
e 11 119
e 11 133
e 12 53
e 12 54
e 12 109
e 12 120
e 12 136
e 13 36
e 13 41
e 13 43
e 13 96
e 13 159
e 14 56
e 14 107
e 14 126
e 14 154
e 15 136
e 16 118
e 16 133
e 16 152
e 17 18
e 17 22
e 17 76
e 17 101
e 18 43
e 18 50
e 20 50
e 21 128
e 22 27
e 22 93
e 22 102
e 22 154
e 23 152
e 24 25
e 24 86
e 24 121
e 24 130
e 24 131
e 25 61
e 25 76
e 25 101
e 26 31
e 26 92
e 26 111
e 26 143
e 27 48
e 27 79
e 28 34
e 28 42
e 28 73
e 28 90
e 28 118
e 29 87
e 29 108
e 29 137
e 30 40
e 30 146
e 31 68
e 31 84
e 31 114
e 31 136
e 31 159
e 32 52
e 32 67
e 32 114
e 33 40
e 33 41
e 33 51
e 33 69
e 33 78
e 33 98
e 34 95
e 34 101
e 34 136
e 35 41
e 35 123
e 35 150
e 36 38
e 36 52
e 36 132
e 37 61
e 37 95
e 37 156
e 38 73
e 38 99
e 38 104
e 38 105
e 38 137
e 39 149
e 40 82
e 40 119
e 41 59
e 41 87
e 41 137
e 42 46
e 42 108
e 43 88
e 43 90
e 44 73
e 44 104
e 44 107
e 44 131
e 44 159
e 45 109
e 46 76
e 46 137
e 46 156
e 47 55
e 47 137
e 48 60
e 48 73
e 48 94
e 49 88
e 49 129
e 50 60
e 50 144
e 51 71
e 51 73
e 51 93
e 52 57
e 52 110
e 53 58
e 53 69
e 53 146
e 54 94
e 54 124
e 54 132
e 55 67
e 55 99
e 56 112
e 57 104
e 57 117
e 57 136
e 58 154
e 59 97
e 59 133
e 59 150
e 60 69
e 60 91
e 60 160
e 61 77
e 61 79
e 61 127
e 61 128
e 61 142
e 62 89
e 62 139
e 62 158
e 63 107
e 64 99
e 64 106
e 64 157
e 65 79
e 66 139
e 66 147
e 67 134
e 68 69
e 68 87
e 68 130
e 69 81
e 70 107
e 70 118
e 70 146
e 70 157
e 71 98
e 71 99
e 72 94
e 72 117
e 72 126
e 72 134
e 72 160
e 74 104
e 74 125
e 74 128
e 74 154
e 75 93
e 75 104
e 75 144
e 76 137
e 76 138
e 77 144
e 77 159
e 79 86
e 79 103
e 79 154
e 80 112
e 80 119
e 81 114
e 81 135
e 81 160
e 82 88
e 82 144
e 82 154
e 83 106
e 83 150
e 84 106
e 84 148
e 85 94
e 86 125
e 87 116
e 87 137
e 87 159
e 88 115
e 89 112
e 90 159
e 91 152
e 92 100
e 92 149
e 92 154
e 93 152
e 94 100
e 94 106
e 94 110
e 94 111
e 94 133
e 94 151
e 95 102
e 95 127
e 96 132
e 96 145
e 97 98
e 97 134
e 97 140
e 97 159
e 98 131
e 98 148
e 99 111
e 100 131
e 101 117
e 101 119
e 102 109
e 102 117
e 102 160
e 103 152
e 104 124
e 104 131
e 104 132
e 105 123
e 105 146
e 107 132
e 108 129
e 108 149
e 110 115
e 110 131
e 110 133
e 113 140
e 116 131
e 118 127
e 119 139
e 119 153
e 120 140
e 121 152
e 124 131
e 124 150
e 125 127
e 126 149
e 127 131
e 127 139
e 128 131
e 128 141
e 129 133
e 129 141
e 131 147
e 131 154
e 133 158
e 134 160
e 136 143
e 138 146
e 143 152
e 155 160
